
  32    4
  10   10   10   10

   0   0   0   0   0   7 2 3 4 5 6 7 8 
   4   1   1   1   0   7 31 30 25 12 11 10 9 
   2   4   0   7   1   7 30 26 25 21 18 10 9 
   4   5   6   4   0   4 28 25 12 9 
   9   2   5   0   3   3 19 12 9 
  10   0   4   5   4  14 30 29 28 25 24 23 22 20 19 18 17 16 14 13 
   7   3   5   0   6   7 28 26 25 21 20 18 10 
   4   0   2   6   3   5 30 25 19 14 9 
   7   2   4   0   5   8 27 24 23 22 20 17 16 15 
   9   0   2   4   2   7 29 19 17 16 15 14 13 
   3   5   0   4   6   6 28 21 19 18 15 13 
   3   5   0   4   6   5 26 21 18 14 13 
  10   4   6   0   5   1 32
   9   5   4   6   0   1 32
   8   0   5   6   4   1 32
   5   8   2   1   0   1 32
   9   6   2   7   0   1 32
   7   4   6   4   0   1 32
   5   4   2   3   0   1 32
  10   4   5   5   0   1 32
  10   1   8   2   0   1 32
   9   4   3   5   0   1 32
   6   4   0   3   4   1 32
   4   6   7   2   0   1 32
  10   2   5   4   0   1 32
   9   3   2   4   0   1 32
  10   4   2   3   0   1 32
   1   7   3   4   0   1 32
   7   0   5   3   2   1 32
   3   4   0   3   6   1 32
   3   3   4   0   3   1 32
   0   0   0   0   0   0 
